SCIP version 5.0.0 [precision: 8 byte] [memory: block] [mode: optimized] [LP solver: NONE] [GitHash: 3bbd232]
Copyright (C) 2002-2017 Konrad-Zuse-Zentrum fuer Informationstechnik Berlin (ZIB)

External codes: 
  Readline EditLine w  GNU library for command line editing (gnu.org/s/readline)
  CppAD 20160000.1     Algorithmic Differentiation of C++ algorithms developed by B. Bell (www.coin-or.org/CppAD)
  ZLIB 1.2.5           General purpose compression library by J. Gailly and M. Adler (zlib.net)
  GMP 6.1.2            GNU Multiple Precision Arithmetic Library developed by T. Granlund (gmplib.org)

user parameter file <scip.set> not found - using default parameters

read problem <../../Split_data/output/statG/7/1_sample_statG.logreg>
============

File name	:	../../Split_data/output/statG/7/1_sample_statG.logreg
Problem name 	:	1_sample_statG
Number of data	:	800
Number of var	:	61
The given data has linear dependence
13 sets of column vector are linearly dependent:

[dim=1] time: 0.04002
[dim=2] time: 0.094763
[dim=3] time: 0.134809
[dim=4] time: 0.173342
[dim=5] time: 0.215282
[dim=6] time: 0.25439
[dim=7] time: 0.293983
[dim=8] time: 0.333861
[dim=9] time: 0.374443
[dim=10] time: 0.414747
[dim=11] time: 0.454704
[dim=12] time: 0.497557
[dim=13] time: 0.537302
[dim=14] time: 0.578182
[dim=15] time: 0.617665
[dim=16] time: 0.658666
[dim=17] time: 0.699333
[dim=18] time: 0.739971
[dim=19] time: 0.777841
[dim=20] time: 0.815083
[dim=21] time: 0.860805
[dim=22] time: 0.897021
[dim=23] Time of forward = 0.933601sec.
AIC: 754.759
k: 22

[dim=48] time: 0.115498
[dim=47] time: 0.190482
[dim=46] time: 0.263076
[dim=45] time: 0.330532
[dim=44] time: 0.392313
[dim=43] time: 0.451158
[dim=42] time: 0.516062
[dim=41] time: 0.578617
[dim=40] time: 0.633519
[dim=39] time: 0.693296
[dim=38] time: 0.746603
[dim=37] time: 0.794499
[dim=36] time: 0.843199
[dim=35] time: 0.892847
[dim=34] time: 0.9311
[dim=33] time: 0.976275
[dim=32] time: 1.01143
[dim=31] time: 1.04575
[dim=30] time: 1.0856
[dim=29] time: 1.12247
[dim=28] time: 1.15688
[dim=27] time: 1.189
[dim=26] time: 1.22321
[dim=25] Time of backward = 1.26275sec.
AIC: 759.267
k: 26
